#http://www.ichemlabs.com
! RHF def2-SVP

*xyz 0 1
C    -0.514517   0.786594   0.002139
C    -1.225917  -0.426606   0.001439
C    -0.531017  -1.649306   0.000639
C     0.875383  -1.658906   0.000439
C     1.586883  -0.445706   0.001139
C     0.891983   0.777094   0.001939
C    -1.259117   2.096794  -0.003261
N    -2.564917  -0.417506   0.002139
O    -3.181117  -1.468206   0.001539
N     1.537083  -2.823006   0.000039
O     2.754983  -2.831306  -0.000061
N     1.569283   1.932194   0.002139
O     2.787283   1.923894   0.001539
H    -1.077317  -2.581006   0.000439
H     2.666883  -0.453006   0.001339
H    -1.442717   2.414494   1.023139
H    -0.662817   2.851494  -0.516061
H    -2.210317   1.971994  -0.520661
*


