#http://www.ichemlabs.com
! RHF def2-SVP


*xyz 0 1
Fe    0.000000   0.000000  -0.701428
C     1.912300  -0.326800  -0.701428
C     2.697300   1.008400  -0.701428
C     4.069200   0.640700  -0.099328
C     3.852600  -0.626500   0.746372
C     2.356700  -0.984600   0.628572
C    -1.912300   0.326800  -0.701428
C    -2.697300  -1.008400  -0.701428
C    -4.069200  -0.640700  -0.099328
C    -3.852600   0.626500   0.746372
C    -2.356700   0.984600   0.628572
H     2.197400  -0.942500  -1.554428
H     2.814900   1.381800  -1.718728
H     2.193100   1.747400  -0.078728
H     4.785100   0.439900  -0.896328
H     4.430000   1.453300   0.531372
H     4.463400  -1.442300   0.359672
H     4.108400  -0.428900   1.787272
H     1.797500  -0.567500   1.465972
H     2.225800  -2.065700   0.581872
H    -2.197400   0.942500  -1.554428
H    -2.814900  -1.381800  -1.718728
H    -2.193100  -1.747400  -0.078728
H    -4.785100  -0.439900  -0.896328
H    -4.430000  -1.453300   0.531372
H    -4.463400   1.442300   0.359672
H    -4.108400   0.428900   1.787272
H    -1.797500   0.567500   1.465972
H    -2.225800   2.065700   0.581872
*


