#http://www.ichemlabs.com
! RHF def2-SVP

*xyz 0 1
C    -1.328350   0.000000   0.002725
C    -0.636350  -1.198000   0.001625
C     0.745850  -1.197400  -0.000875
C     1.436750   0.000000  -0.001775
C     0.745850   1.197400  -0.000675
C    -0.636350   1.198000   0.001425
Cl   -3.064350   0.000000  -0.001375
H    -1.176050  -2.133500   0.003025
H     1.286150  -2.132500  -0.001775
H     2.516750   0.000000  -0.002975
H     1.286150   2.132500  -0.001275
H    -1.176050   2.133500   0.001925
*


