#http://www.ichemlabs.com
! RHF def2-SVP largeprint moread noiter
%moinp "FeO.qro"

*xyz 1 4
Fe   -0.766750   0.000000   0.000000
O     0.766750   0.000000   0.000000
*


