# avogadro generated ORCA input file 
# Basic Mode
# Formaldehyde MO
! RHF SP def2-SVP 

* xyz 0 1
   C       -0.92343       -0.27412       -0.32746
   C        0.55848       -0.30214       -0.26692
   C        1.35721       -0.82724        0.86745
   O        1.16642        0.14019       -1.22249
   H       -1.32510       -0.69072        0.57253
   H       -1.25705       -0.84854       -1.16630
   H       -1.25705        0.73712       -0.43230
   H        0.69917       -1.18167        1.63313
   H        1.97430       -0.04657        1.26073
   H        1.97430       -1.63223        0.52674
*

