#http://www.ichemlabs.com
! ROHF def2-SVP

*xyz 0 2
N    -0.471750   0.000000   0.000000
O     0.471750   0.000000   0.000000
*


