! MP2 def2-SVP

*xyz 0 1
C 0.000000 0.000000 -0.129289
H -0.859359 0.000000 0.566990
H 0.859359 0.000000 0.566990
*