! MP2 def2-SVP


*xyz 0 3
C -0.000000 0.000000 0.056545
H -0.990707 0.000000 0.474072
H 0.990707 0.000000 0.474072
*