# avogadro generated ORCA input file 
# Basic Mode
# 
! RHF 6-31G

* xyz 0 1
   C       -2.94366       -0.47317        0.31613
   C       -1.68675        0.21870       -0.22102
   O       -0.56523        0.83606       -0.70033
   H       -2.65949       -1.28800        0.94875
   H       -3.52467       -0.84314       -0.50268
   H       -3.52467        0.22840        0.87749
   H       -1.33355       -0.71741       -0.60029
   H       -2.03996        1.15481        0.15825
   H        0.00193        0.18199       -1.13785
*

